WARNING: for repeatability, setting FPU to use double precision
============================[ Problem Statistics ]=============================
|                                                                             |
|  Number of variables:           100                                         |
|  Number of clauses:             449                                         |
|  Parse time:                   0.00 s                                       |
|  Simplification time:          0.00 s                                       |
|                                                                             |
============================[ Search Statistics ]==============================
| Conflicts |          ORIGINAL         |          LEARNT          | Progress |
|           |    Vars  Clauses Literals |    Limit  Clauses Lit/Cl |          |
===============================================================================
|       100 |     100      449     1347 |      164      100      6 |  0.020 % |
===============================================================================
restarts              : 2
conflicts             : 125            (63387 /sec)
decisions             : 159            (0.00 % random) (80629 /sec)
propagations          : 2819           (1429513 /sec)
conflict literals     : 742            (16.25 % deleted)
Memory used           : 13.00 MB
CPU time              : 0.001972 s

SATISFIABLE
